(set-logic UF)
(synth-fun gen_write_req ((x0 Bool) (x1 Bool) (x2 Bool) (x3 Bool) (x4 Bool) (x5 Bool)) Bool

    ;; Declare the non-terminals that would be used in the grammar
    ((B Bool))

    ;; Define the grammar for allowed implementations of max2
    ( (B Bool (true false (and B B) (or B B) (not B) x0 x1 x2 x3 x4 x5) ) )
)
        


(synth-fun gen_redo_write_req ((x0 Bool) (x1 Bool) (x2 Bool) (x3 Bool) (x4 Bool) (x5 Bool)) Bool

    ;; Declare the non-terminals that would be used in the grammar
    ((B Bool))

    ;; Define the grammar for allowed implementations of max2
    ( (B Bool (true false (and B B) (or B B) (not B) x0 x1 x2 x3 x4 x5) ) )
)
        


(synth-fun gen_mem_ack ((x0 Bool) (x1 Bool) (x2 Bool) (x3 Bool) (x4 Bool) (x5 Bool)) Bool

    ;; Declare the non-terminals that would be used in the grammar
    ((B Bool))

    ;; Define the grammar for allowed implementations of max2
    ( (B Bool (true false (and B B) (or B B) (not B) x0 x1 x2 x3 x4 x5) ) )
)
        


(synth-fun gen_mem_resp ((x0 Bool) (x1 Bool) (x2 Bool) (x3 Bool) (x4 Bool) (x5 Bool)) Bool

    ;; Declare the non-terminals that would be used in the grammar
    ((B Bool))

    ;; Define the grammar for allowed implementations of max2
    ( (B Bool (true false (and B B) (or B B) (not B) x0 x1 x2 x3 x4 x5) ) )
)
        


(synth-fun gen_none ((x0 Bool) (x1 Bool) (x2 Bool) (x3 Bool) (x4 Bool) (x5 Bool)) Bool

    ;; Declare the non-terminals that would be used in the grammar
    ((B Bool))

    ;; Define the grammar for allowed implementations of max2
    ( (B Bool (true false (and B B) (or B B) (not B) x0 x1 x2 x3 x4 x5) ) )
)
        
(declare-var x0 Bool)
(declare-var x1 Bool)
(declare-var x2 Bool)
(declare-var x3 Bool)
(declare-var x4 Bool)
(declare-var x5 Bool)
(constraint (not (and (gen_write_req x0 x1 x2 x3 x4 x5) (gen_redo_write_req x0 x1 x2 x3 x4 x5))))
(constraint (not (and (gen_write_req x0 x1 x2 x3 x4 x5) (gen_mem_ack x0 x1 x2 x3 x4 x5))))
(constraint (not (and (gen_write_req x0 x1 x2 x3 x4 x5) (gen_mem_resp x0 x1 x2 x3 x4 x5))))
(constraint (not (and (gen_write_req x0 x1 x2 x3 x4 x5) (gen_none x0 x1 x2 x3 x4 x5))))
(constraint (not (and (gen_redo_write_req x0 x1 x2 x3 x4 x5) (gen_write_req x0 x1 x2 x3 x4 x5))))
(constraint (not (and (gen_redo_write_req x0 x1 x2 x3 x4 x5) (gen_mem_ack x0 x1 x2 x3 x4 x5))))
(constraint (not (and (gen_redo_write_req x0 x1 x2 x3 x4 x5) (gen_mem_resp x0 x1 x2 x3 x4 x5))))
(constraint (not (and (gen_redo_write_req x0 x1 x2 x3 x4 x5) (gen_none x0 x1 x2 x3 x4 x5))))
(constraint (not (and (gen_mem_ack x0 x1 x2 x3 x4 x5) (gen_write_req x0 x1 x2 x3 x4 x5))))
(constraint (not (and (gen_mem_ack x0 x1 x2 x3 x4 x5) (gen_redo_write_req x0 x1 x2 x3 x4 x5))))
(constraint (not (and (gen_mem_ack x0 x1 x2 x3 x4 x5) (gen_mem_resp x0 x1 x2 x3 x4 x5))))
(constraint (not (and (gen_mem_ack x0 x1 x2 x3 x4 x5) (gen_none x0 x1 x2 x3 x4 x5))))
(constraint (not (and (gen_mem_resp x0 x1 x2 x3 x4 x5) (gen_write_req x0 x1 x2 x3 x4 x5))))
(constraint (not (and (gen_mem_resp x0 x1 x2 x3 x4 x5) (gen_redo_write_req x0 x1 x2 x3 x4 x5))))
(constraint (not (and (gen_mem_resp x0 x1 x2 x3 x4 x5) (gen_mem_ack x0 x1 x2 x3 x4 x5))))
(constraint (not (and (gen_mem_resp x0 x1 x2 x3 x4 x5) (gen_none x0 x1 x2 x3 x4 x5))))
(constraint (not (and (gen_none x0 x1 x2 x3 x4 x5) (gen_write_req x0 x1 x2 x3 x4 x5))))
(constraint (not (and (gen_none x0 x1 x2 x3 x4 x5) (gen_redo_write_req x0 x1 x2 x3 x4 x5))))
(constraint (not (and (gen_none x0 x1 x2 x3 x4 x5) (gen_mem_ack x0 x1 x2 x3 x4 x5))))
(constraint (not (and (gen_none x0 x1 x2 x3 x4 x5) (gen_mem_resp x0 x1 x2 x3 x4 x5))))
(constraint (or (gen_write_req x0 x1 x2 x3 x4 x5) (gen_redo_write_req x0 x1 x2 x3 x4 x5) (gen_mem_ack x0 x1 x2 x3 x4 x5) (gen_mem_resp x0 x1 x2 x3 x4 x5) (gen_none x0 x1 x2 x3 x4 x5)))
(constraint (not (gen_write_req false false false false false false)))
(constraint (not (gen_redo_write_req false false false false false false)))
(constraint (not (gen_mem_ack false false false false false false)))
(constraint (not (gen_mem_resp false false false false false false)))
(constraint (not (gen_write_req false false false false false false)))
(constraint (not (gen_redo_write_req false false false false false false)))
(constraint (not (gen_mem_ack false false false false false false)))
(constraint (not (gen_mem_resp false false false false false false)))
(constraint (not (gen_write_req false false false false false false)))
(constraint (not (gen_redo_write_req false false false false false false)))
(constraint (not (gen_mem_ack false false false false false false)))
(constraint (not (gen_mem_resp false false false false false false)))
(constraint (not (gen_write_req false false false false false false)))
(constraint (not (gen_redo_write_req false false false false false false)))
(constraint (not (gen_mem_ack false false false false false false)))
(constraint (not (gen_mem_resp false false false false false false)))
(constraint (not (gen_write_req false false false false false false)))
(constraint (not (gen_redo_write_req false false false false false false)))
(constraint (not (gen_mem_ack false false false false false false)))
(constraint (not (gen_mem_resp false false false false false false)))
(constraint (not (gen_write_req false false false false false false)))
(constraint (not (gen_redo_write_req false false false false false false)))
(constraint (not (gen_mem_ack false false false false false false)))
(constraint (not (gen_mem_resp false false false false false false)))
(constraint (not (gen_redo_write_req false true false false false false)))
(constraint (not (gen_mem_ack false true false false false false)))
(constraint (not (gen_none false true false false false false)))
(constraint (not (gen_write_req false false false false false false)))
(constraint (not (gen_redo_write_req false false false false false false)))
(constraint (not (gen_mem_ack false false false false false false)))
(constraint (not (gen_write_req false false false false false false)))
(constraint (not (gen_redo_write_req false false false false false false)))
(constraint (not (gen_mem_ack false false false false false false)))
(constraint (not (gen_write_req false false true true false false)))
(constraint (not (gen_redo_write_req false false true true false false)))
(constraint (not (gen_mem_resp false false true true false false)))
(constraint (not (gen_none false false true true false false)))
(constraint (not (gen_write_req false false false false false false)))
(constraint (not (gen_redo_write_req false false false false false false)))
(constraint (not (gen_mem_ack false false false false false false)))
(constraint (not (gen_mem_resp false false false false false false)))
(constraint (not (gen_write_req false false false false false false)))
(constraint (not (gen_redo_write_req false false false false false false)))
(constraint (not (gen_mem_ack false false false false false false)))
(constraint (not (gen_mem_resp false false false false false false)))
(constraint (not (gen_write_req false false false false false false)))
(constraint (not (gen_redo_write_req false false false false false false)))
(constraint (not (gen_mem_ack false false false false false false)))
(constraint (not (gen_mem_resp false false false false false false)))
(constraint (not (gen_write_req false false false false false false)))
(constraint (not (gen_redo_write_req false false false false false false)))
(constraint (not (gen_mem_ack false false false false false false)))
(constraint (not (gen_mem_resp false false false false false false)))
(constraint (not (gen_write_req false false false false false false)))
(constraint (not (gen_redo_write_req false false false false false false)))
(constraint (not (gen_mem_ack false false false false false false)))
(constraint (not (gen_mem_resp false false false false false false)))
(constraint (not (gen_write_req false false false false false false)))
(constraint (not (gen_redo_write_req false false false false false false)))
(constraint (not (gen_mem_ack false false false false false false)))
(constraint (not (gen_mem_resp false false false false false false)))
(constraint (not (gen_write_req false false false false false false)))
(constraint (not (gen_redo_write_req false false false false false false)))
(constraint (not (gen_mem_ack false false false false false false)))
(constraint (not (gen_mem_resp false false false false false false)))
(constraint (not (gen_write_req false false false false false false)))
(constraint (not (gen_redo_write_req false false false false false false)))
(constraint (not (gen_mem_ack false false false false false false)))
(constraint (not (gen_mem_resp false false false false false false)))
(constraint (not (gen_write_req false false false false false false)))
(constraint (not (gen_redo_write_req false false false false false false)))
(constraint (not (gen_mem_ack false false false false false false)))
(constraint (not (gen_mem_resp false false false false false false)))
(constraint (not (gen_write_req false false false false false false)))
(constraint (not (gen_redo_write_req false false false false false false)))
(constraint (not (gen_mem_ack false false false false false false)))
(constraint (not (gen_mem_resp false false false false false false)))
(constraint (not (gen_write_req false false false false false false)))
(constraint (not (gen_redo_write_req false false false false false false)))
(constraint (not (gen_mem_ack false false false false false false)))
(constraint (not (gen_mem_resp false false false false false false)))
(constraint (not (gen_redo_write_req false true false false false false)))
(constraint (not (gen_mem_ack false true false false false false)))
(constraint (not (gen_none false true false false false false)))
(constraint (not (gen_write_req false false false false false false)))
(constraint (not (gen_redo_write_req false false false false false false)))
(constraint (not (gen_mem_ack false false false false false false)))
(constraint (not (gen_write_req false false false false false false)))
(constraint (not (gen_redo_write_req false false false false false false)))
(constraint (not (gen_mem_ack false false false false false false)))
(constraint (not (gen_write_req false false true true false false)))
(constraint (not (gen_redo_write_req false false true true false false)))
(constraint (not (gen_mem_resp false false true true false false)))
(constraint (not (gen_none false false true true false false)))
(constraint (not (gen_write_req false false false false false false)))
(constraint (not (gen_redo_write_req false false false false false false)))
(constraint (not (gen_mem_ack false false false false false false)))
(constraint (not (gen_mem_resp false false false false false false)))
(constraint (not (gen_write_req false false false false false false)))
(constraint (not (gen_redo_write_req false false false false false false)))
(constraint (not (gen_mem_ack false false false false false false)))
(constraint (not (gen_mem_resp false false false false false false)))
(constraint (not (gen_redo_write_req false true false false false false)))
(constraint (not (gen_mem_ack false true false false false false)))
(constraint (not (gen_none false true false false false false)))
(constraint (not (gen_write_req false false false false false false)))
(constraint (not (gen_redo_write_req false false false false false false)))
(constraint (not (gen_mem_ack false false false false false false)))
(constraint (not (gen_write_req false false false false false false)))
(constraint (not (gen_redo_write_req false false false false false false)))
(constraint (not (gen_mem_ack false false false false false false)))
(constraint (not (gen_write_req false false true true false false)))
(constraint (not (gen_redo_write_req false false true true false false)))
(constraint (not (gen_mem_resp false false true true false false)))
(constraint (not (gen_none false false true true false false)))
(constraint (not (gen_write_req false false false false false false)))
(constraint (not (gen_redo_write_req false false false false false false)))
(constraint (not (gen_mem_ack false false false false false false)))
(constraint (not (gen_mem_resp false false false false false false)))
(constraint (not (gen_write_req true true false false false false)))
(constraint (not (gen_mem_ack true true false false false false)))
(constraint (not (gen_mem_resp true true false false false false)))
(constraint (not (gen_none true true false false false false)))
(constraint (not (gen_write_req false false false false false false)))
(constraint (not (gen_redo_write_req false false false false false false)))
(constraint (not (gen_mem_ack false false false false false false)))
(constraint (not (gen_mem_resp false false false false false false)))
(constraint (not (gen_write_req false false false false false false)))
(constraint (not (gen_redo_write_req false false false false false false)))
(constraint (not (gen_mem_ack false false false false false false)))
(constraint (not (gen_mem_resp false false false false false false)))
(constraint (not (gen_write_req false false false false false false)))
(constraint (not (gen_redo_write_req false false false false false false)))
(constraint (not (gen_mem_ack false false false false false false)))
(constraint (not (gen_mem_resp false false false false false false)))
(constraint (not (gen_write_req false false false false false true)))
(constraint (not (gen_redo_write_req false false false false false true)))
(constraint (not (gen_mem_ack false false false false false true)))
(constraint (not (gen_none false false false false false true)))
(constraint (not (gen_write_req false false true true false false)))
(constraint (not (gen_redo_write_req false false true true false false)))
(constraint (not (gen_mem_resp false false true true false false)))
(constraint (not (gen_none false false true true false false)))
(constraint (not (gen_write_req false false false false false false)))
(constraint (not (gen_redo_write_req false false false false false false)))
(constraint (not (gen_mem_ack false false false false false false)))
(constraint (not (gen_mem_resp false false false false false false)))
(constraint (not (gen_write_req false false false false false false)))
(constraint (not (gen_redo_write_req false false false false false false)))
(constraint (not (gen_mem_ack false false false false false false)))
(constraint (not (gen_mem_resp false false false false false false)))
(constraint (not (gen_write_req false false false false false false)))
(constraint (not (gen_redo_write_req false false false false false false)))
(constraint (not (gen_mem_ack false false false false false false)))
(constraint (not (gen_mem_resp false false false false false false)))
(constraint (not (gen_write_req false false false false false false)))
(constraint (not (gen_redo_write_req false false false false false false)))
(constraint (not (gen_mem_ack false false false false false false)))
(constraint (not (gen_mem_resp false false false false false false)))
(constraint (not (gen_write_req false false false false false false)))
(constraint (not (gen_redo_write_req false false false false false false)))
(constraint (not (gen_mem_ack false false false false false false)))
(constraint (not (gen_mem_resp false false false false false false)))
(constraint (not (gen_write_req false false false false false true)))
(constraint (not (gen_redo_write_req false false false false false true)))
(constraint (not (gen_mem_ack false false false false false true)))
(constraint (not (gen_none false false false false false true)))
(constraint (not (gen_write_req false false false false false false)))
(constraint (not (gen_redo_write_req false false false false false false)))
(constraint (not (gen_mem_ack false false false false false false)))
(constraint (not (gen_mem_resp false false false false false false)))
(constraint (not (gen_write_req false false false false false true)))
(constraint (not (gen_redo_write_req false false false false false true)))
(constraint (not (gen_mem_ack false false false false false true)))
(constraint (not (gen_none false false false false false true)))

(check-synth)